CPXPARAM_Read_DataCheck                          1
Found incumbent of value 0.000000 after 0.00 sec. (0.08 ticks)
Tried aggregator 1 time.
MIP Presolve modified 1 coefficients.
Reduced MIP has 333 rows, 3010 columns, and 15034 nonzeros.
Reduced MIP has 3010 binaries, 0 generals, 0 SOSs, and 0 indicators.
Presolve time = 0.00 sec. (5.73 ticks)
Tried aggregator 1 time.
Reduced MIP has 333 rows, 3010 columns, and 15034 nonzeros.
Reduced MIP has 3010 binaries, 0 generals, 0 SOSs, and 0 indicators.
Presolve time = 0.00 sec. (6.85 ticks)
Probing time = 0.00 sec. (3.67 ticks)
Clique table members: 9997.
MIP emphasis: balance optimality and feasibility.
MIP search method: dynamic search.
Parallel mode: deterministic, using up to 4 threads.
Root relaxation solution time = 0.02 sec. (15.66 ticks)

        Nodes                                         Cuts/
   Node  Left     Objective  IInf  Best Integer    Best Bound    ItCnt     Gap

*     0+    0                            0.0000    18317.0000              --- 
*     0+    0                         2531.0000    18317.0000           623.71%
      0     0     5277.1344    12     2531.0000     5277.1344      580  108.50%
      0     0     4418.5314    63     2531.0000     Cuts: 183      986   74.58%
*     0+    0                         3605.0000     4418.5314            22.57%
      0     0     4116.4764    77     3605.0000     Cuts: 183     1302   14.19%
      0     0     3940.4757   336     3605.0000     Cuts: 183     1746    9.31%
      0     0     3892.1435   378     3605.0000     Cuts: 183     2010    7.97%
*     0+    0                         3606.0000     3892.1435             7.94%
      0     0        cutoff           3606.0000     3606.0000     2441    0.00%
Elapsed time = 0.72 sec. (398.14 ticks, tree = 0.01 MB, solutions = 4)

Clique cuts applied:  453
Cover cuts applied:  3
Implied bound cuts applied:  16
Mixed integer rounding cuts applied:  60
Zero-half cuts applied:  15
Gomory fractional cuts applied:  1

Root node processing (before b&c):
  Real time             =    0.72 sec. (398.39 ticks)
Parallel b&c, 4 threads:
  Real time             =    0.00 sec. (0.00 ticks)
  Sync time (average)   =    0.00 sec.
  Wait time (average)   =    0.00 sec.
                          ------------
Total (root+branch&cut) =    0.72 sec. (398.39 ticks)
